(set-logic HORN)
(declare-fun state (Bool Bool Bool (Array Int Int) (Array Int Int) Int Int Int Int Int) Bool)
(assert (forall ((|!pc[2]| Bool) (|!pc[1]| Bool) (|!pc[0]| Bool) (|!{b.2}| (Array Int Int)) (|!{a.1}| (Array Int Int)) (|!{SIZE}| Int) (|!{i}| Int) (|arrlambda_0| Int) (|hist_nondet_int<0>_1| Int) (|proph0| Int) (|nondet_char<0>| Int) (|%{b.2}#2| (Array Int Int)) (|!{b.2}.next| (Array Int Int)) (|!{a.1}.next| (Array Int Int)) (|nondet_int<0>| Int) (|arrlambda_0.next| Int) (|%{a.1}#1| (Array Int Int)) (|%{b.2}#1| (Array Int Int)) (|!{SIZE}.next| Int) (|!{i}.next| Int) (|!pc[1].next| Bool) (|!pc[0].next| Bool) (|!pc[2].next| Bool) (|%{$temp.1}#3| Int) (|hist_nondet_int<0>_1.next| Int) (|proph0.next| Int)) (=> (and (and (not |!pc[0]|) (not |!pc[1]|)) (not |!pc[2]|)) (state |!pc[2]| |!pc[1]| |!pc[0]| |!{b.2}| |!{a.1}| |!{SIZE}| |!{i}| |arrlambda_0| |hist_nondet_int<0>_1| |proph0|))))
(assert (forall ((|!pc[2]| Bool) (|!pc[1]| Bool) (|!pc[0]| Bool) (|!{b.2}| (Array Int Int)) (|!{a.1}| (Array Int Int)) (|!{SIZE}| Int) (|!{i}| Int) (|arrlambda_0| Int) (|hist_nondet_int<0>_1| Int) (|proph0| Int) (|nondet_char<0>| Int) (|%{b.2}#2| (Array Int Int)) (|!{b.2}.next| (Array Int Int)) (|!{a.1}.next| (Array Int Int)) (|nondet_int<0>| Int) (|arrlambda_0.next| Int) (|%{a.1}#1| (Array Int Int)) (|%{b.2}#1| (Array Int Int)) (|!{SIZE}.next| Int) (|!{i}.next| Int) (|!pc[1].next| Bool) (|!pc[0].next| Bool) (|!pc[2].next| Bool) (|%{$temp.1}#3| Int) (|hist_nondet_int<0>_1.next| Int) (|proph0.next| Int)) (=> (and (state |!pc[2]| |!pc[1]| |!pc[0]| |!{b.2}| |!{a.1}| |!{SIZE}| |!{i}| |arrlambda_0| |hist_nondet_int<0>_1| |proph0|) (let ((.def_20 (not |!pc[0]|))) (let ((.def_21 (not |!pc[1]|))) (let ((.def_23 (not |!pc[2]|))) (let ((.def_27 (* 2 nondet_char<0>))) (let ((.def_28 (store |!{b.2}| |!{i}| .def_27))) (let ((.def_29 (select .def_28 proph0))) (let ((.def_30 (select |!{b.2}| proph0))) (let ((.def_32 (= |!{i}| proph0))) (let ((.def_35 (select |%{b.2}#2| proph0))) (let ((.def_37 (= .def_28 |%{b.2}#2|))) (let ((.def_38 (not .def_37))) (let ((.def_40 (store |!{b.2}| |!{i}| nondet_char<0>))) (let ((.def_41 (select .def_40 proph0))) (let ((.def_45 (store |!{a.1}| |!{i}| nondet_char<0>))) (let ((.def_46 (select .def_45 proph0))) (let ((.def_50 (= |%{b.2}#2| .def_40))) (let ((.def_51 (not .def_50))) (let ((.def_56 (= |%{b.2}#2| |!{b.2}.next|))) (let ((.def_57 (not .def_56))) (let ((.def_62 (= .def_45 |!{a.1}.next|))) (let ((.def_63 (not .def_62))) (let ((.def_66 (select .def_28 nondet_int<0>))) (let ((.def_67 (select |%{b.2}#2| nondet_int<0>))) (let ((.def_70 (select |!{b.2}.next| nondet_int<0>))) (let ((.def_73 (select |!{b.2}| nondet_int<0>))) (let ((.def_77 (select |%{b.2}#2| |!{i}|))) (let ((.def_78 (select .def_40 |!{i}|))) (let ((.def_81 (select .def_28 |!{i}|))) (let ((.def_88 (select .def_45 |!{i}|))) (let ((.def_120 (not |!pc[2].next|))) (let ((.def_121 (and (and (not |!pc[1].next|) |!pc[0].next|) .def_120))) (let ((.def_125 (and .def_23 (and |!pc[1]| .def_20)))) (let ((.def_127 (and .def_120 (and |!pc[1].next| |!pc[0].next|)))) (let ((.def_129 (= |!{a.1}| |!{a.1}.next|))) (let ((.def_130 (= |!{b.2}| |!{b.2}.next|))) (let ((.def_132 (= |!{SIZE}| |!{SIZE}.next|))) (let ((.def_134 (= |!{i}| |!{i}.next|))) (let ((.def_135 (and (and (and .def_129 .def_130) .def_132) .def_134))) (let ((.def_138 (<= |!{SIZE}| |!{i}|))) (let ((.def_146 (= nondet_int<0> 0))) (let ((.def_154 (and .def_23 (and |!pc[0]| .def_21)))) (let ((.def_157 (select |!{a.1}| nondet_int<0>))) (let ((.def_163 (or (= .def_73 .def_157) (= (+ .def_73 (* (- 2) .def_157)) 0)))) (let ((.def_172 (and (<= 0 nondet_int<0>) (not (<= |!{SIZE}| nondet_int<0>))))) (let ((.def_199 (store |!{a.1}.next| |!{i}.next| nondet_char<0>))) (let ((.def_204 (store |!{b.2}.next| |!{i}.next| .def_27))) (let ((.def_205 (select .def_204 |!{i}.next|))) (let ((.def_211 (store |!{b.2}.next| |!{i}.next| nondet_char<0>))) (let ((.def_212 (select .def_211 |!{i}.next|))) (let ((.def_218 (select |%{b.2}#2| |!{i}.next|))) (let ((.def_221 (not (= |%{b.2}#2| .def_204)))) (let ((.def_227 (not (= |%{b.2}#2| .def_211)))) (let ((.def_237 (select .def_204 nondet_int<0>))) (let ((.def_250 (select .def_211 proph0.next))) (let ((.def_251 (select |%{b.2}#2| proph0.next))) (let ((.def_259 (= |!{i}.next| proph0.next))) (let ((.def_263 (select |!{b.2}.next| proph0.next))) (let ((.def_268 (select .def_204 proph0.next))) (and (and (or (= .def_29 .def_30) .def_32) (and (and (or (= .def_29 .def_35) .def_38) (and (and (or .def_32 (= .def_30 .def_41)) (and (and (or .def_32 (= (select |!{a.1}| proph0) .def_46)) (and (and (or (= .def_35 .def_41) .def_51) (and (or (= .def_35 (select |!{b.2}.next| proph0)) .def_57) (and (or (= .def_46 (select |!{a.1}.next| proph0)) .def_63) (and (and (or .def_38 (= .def_66 .def_67)) (and (or .def_57 (= .def_67 .def_70)) (and (and (or (= .def_66 .def_73) (= |!{i}| nondet_int<0>)) (and (and (and (and (or .def_51 (= .def_77 .def_78)) (and (and (or .def_38 (= .def_77 .def_81)) (and (or .def_57 (= .def_77 (select |!{b.2}.next| |!{i}|))) (and (or .def_63 (= (select |!{a.1}.next| |!{i}|) .def_88)) (and (and (= nondet_char<0> .def_78) (and (and (= (+ .def_27 (* (- 1) .def_81)) 0) (and (and (= nondet_char<0> .def_88) (and (and (= arrlambda_0 arrlambda_0.next) (or (or (and (and (not (<= nondet_int<0> 0)) (and (and (and (= |!{a.1}.next| |%{a.1}#1|) (= |!{b.2}.next| |%{b.2}#1|)) (= nondet_int<0> |!{SIZE}.next|)) (= |!{i}.next| 0))) (and (and (and .def_20 .def_21) .def_23) .def_121)) (and (and .def_125 .def_127) .def_135)) (or (or (and (and (not .def_138) (and (and (and .def_132 (and .def_56 .def_62)) (= (+ |!{i}| (* (- 1) |!{i}.next|)) (- 1))) (or (and .def_37 .def_146) (and .def_50 (not .def_146))))) (and .def_121 .def_154)) (and (and .def_138 (and (and .def_134 (and .def_132 (and .def_130 (and .def_129 (not .def_163))))) .def_172)) (and .def_154 (and .def_120 (and |!pc[1].next| (not |!pc[0].next|)))))) (and (and .def_138 (and .def_135 (or (and (not .def_172) (= nondet_int<0> |%{$temp.1}#3|)) (and (and .def_163 .def_172) (= |%{$temp.1}#3| 1))))) (and .def_127 .def_154))))) (not .def_125))) (= nondet_char<0> (select .def_199 |!{i}.next|)))) (= (+ .def_27 (* (- 1) .def_205)) 0))) (= nondet_char<0> .def_212))))) (or (= .def_205 .def_218) .def_221))) (or (= .def_212 .def_218) .def_227)) (= nondet_int<0> hist_nondet_int<0>_1.next)) (= proph0 proph0.next))) (or (= .def_70 .def_237) (= nondet_int<0> |!{i}.next|))))) (or .def_221 (= .def_67 .def_237)))))) (or .def_227 (= .def_250 .def_251)))) (or (= (select |!{a.1}.next| proph0.next) (select .def_199 proph0.next)) .def_259))) (or .def_259 (= .def_250 .def_263)))) (or .def_221 (= .def_251 .def_268)))) (or .def_259 (= .def_263 .def_268)))))))))))))))))))))))))))))))))))))))))))))))))))))))))))))) (state |!pc[2].next| |!pc[1].next| |!pc[0].next| |!{b.2}.next| |!{a.1}.next| |!{SIZE}.next| |!{i}.next| |arrlambda_0.next| |hist_nondet_int<0>_1.next| |proph0.next|))))
(assert (forall ((|!pc[2]| Bool) (|!pc[1]| Bool) (|!pc[0]| Bool) (|!{b.2}| (Array Int Int)) (|!{a.1}| (Array Int Int)) (|!{SIZE}| Int) (|!{i}| Int) (|arrlambda_0| Int) (|hist_nondet_int<0>_1| Int) (|proph0| Int) (|nondet_char<0>| Int) (|%{b.2}#2| (Array Int Int)) (|!{b.2}.next| (Array Int Int)) (|!{a.1}.next| (Array Int Int)) (|nondet_int<0>| Int) (|arrlambda_0.next| Int) (|%{a.1}#1| (Array Int Int)) (|%{b.2}#1| (Array Int Int)) (|!{SIZE}.next| Int) (|!{i}.next| Int) (|!pc[1].next| Bool) (|!pc[0].next| Bool) (|!pc[2].next| Bool) (|%{$temp.1}#3| Int) (|hist_nondet_int<0>_1.next| Int) (|proph0.next| Int)) (=> (state |!pc[2]| |!pc[1]| |!pc[0]| |!{b.2}| |!{a.1}| |!{SIZE}| |!{i}| |arrlambda_0| |hist_nondet_int<0>_1| |proph0|) (or (not (and (not |!pc[2]|) (and |!pc[1]| (not |!pc[0]|)))) (not (= hist_nondet_int<0>_1 proph0))))))
(check-sat)
